; benchmark generated from python API
(set-info :status unknown)
(declare-datatypes ((RealState 0)) (((RMk1 (rval1 Real)) (RMk2 (rval2 Real)))))
 (assert
 (forall ((|v17:0| Real) )(forall ((|v16:1| Real) )(forall ((|v15:2| Real) )(forall ((|v14:3| Real) )(forall ((|v13:4| Real) )(forall ((|v12:5| Real) )(exists ((|v11:6_st| RealState) (val!10338 Real) )(exists ((|v10:7_st| RealState) (val!10339 Real) )(exists ((|v9:8_st| RealState) (val!10340 Real) )(exists ((|v8:9_st| RealState) (val!10341 Real) )(exists ((|v7:10_st| RealState) (val!10342 Real) )(exists ((|v6:11_st| RealState) (val!10343 Real) )(forall ((|v5:12| Real) )(forall ((|v4:13| Real) )(forall ((|v3:14| Real) )(forall ((|v2:15| Real) )(forall ((|v1:16| Real) )(forall ((|v0:17| Real) )(let ((?x5537 (- 1.0)))
 (let ((?x5679 (rval2 |v9:8_st|)))
 (let ((?x7450 (* 12.0 ?x5679)))
 (let ((?x2409 (* 2.0 |v1:16|)))
 (let ((?x9214 (rval2 |v8:9_st|)))
 (let ((?x1661 (* 11.0 ?x9214)))
 (let ((?x6098 (+ (+ (* (- 8.0) (rval2 |v10:7_st|)) (* (- 4.0) (rval2 |v7:10_st|))) ?x1661)))
 (let ((?x334 (+ (+ (+ ?x6098 ?x2409) (* (- 9.0) ?x9214)) (* (- 13.0) (rval2 |v7:10_st|)))))
 (let ((?x6156 (- 18.0)))
 (let ((?x6902 (* ?x6156 |v13:4|)))
 (let ((?x5815 (* 15.0 |v5:12|)))
 (let ((?x7468 (- 11.0)))
 (let ((?x6314 (* ?x7468 ?x5679)))
 (let ((?x8358 (+ (+ (+ (* (- 9.0) |v4:13|) (* 12.0 |v12:5|)) (* 5.0 |v13:4|)) ?x6314)))
 (let (($x4540 (or (<= (+ (+ (+ ?x8358 (* 16.0 (rval2 |v11:6_st|))) ?x5815) ?x6902) 0.0) (<= (+ ?x334 ?x7450) ?x5537))))
 (let ((?x1526 (* 6.0 |v16:1|)))
 (let ((?x3812 (- 15.0)))
 (let ((?x129 (* ?x3812 |v3:14|)))
 (let ((?x5168 (* ?x7468 |v1:16|)))
 (let ((?x4910 (+ (+ (+ (* (- 14.0) |v2:15|) (* 14.0 |v16:1|)) (* (- 14.0) |v4:13|)) ?x5168)))
 (let ((?x3775 (- 16.0)))
 (let ((?x2144 (* 8.0 |v4:13|)))
 (let ((?x4856 (rval2 |v11:6_st|)))
 (let ((?x6970 (* 10.0 ?x4856)))
 (let ((?x5552 (+ (+ (+ (+ (* (- 2.0) ?x5679) (* (- 6.0) |v3:14|)) ?x6970) ?x2144) (* 8.0 ?x5679))))
 (let (($x4241 (and (<= (+ (+ ?x5552 (* 14.0 |v14:3|)) (* (- 17.0) (rval2 |v6:11_st|))) ?x3775) (<= (+ (+ (+ ?x4910 (* (- 8.0) ?x4856)) ?x129) ?x1526) 3.0))))
 (let ((?x7410 (- 8.0)))
 (let ((?x8427 (* 13.0 |v14:3|)))
 (let ((?x9008 (* 8.0 |v2:15|)))
 (let ((?x7708 (* 14.0 |v1:16|)))
 (let ((?x4037 (* 10.0 ?x9214)))
 (let ((?x3120 (+ (+ (+ (* 4.0 (rval2 |v10:7_st|)) (* ?x3775 ?x9214)) (* 15.0 |v0:17|)) ?x4037)))
 (let ((?x4255 (* ?x7468 |v16:1|)))
 (let ((?x7481 (+ (+ (+ (* 6.0 |v14:3|) (* (- 4.0) ?x9214)) (* 2.0 (rval2 |v7:10_st|))) ?x9008)))
 (let (($x5596 (<= (+ (+ (+ ?x7481 ?x4255) (* ?x7410 (rval2 |v6:11_st|))) (* ?x7468 |v17:0|)) 16.0)))
 (let ((?x1687 (- 5.0)))
 (let ((?x6390 (* ?x1687 |v0:17|)))
 (let ((?x5338 (* ?x6156 |v14:3|)))
 (let ((?x2800 (* 2.0 |v3:14|)))
 (let ((?x4718 (+ (+ (+ (* 3.0 |v1:16|) (* (- 7.0) |v2:15|)) (* 4.0 ?x5679)) ?x2800)))
 (let ((?x2709 (* 16.0 |v15:2|)))
 (let ((?x4961 (* 0.0 |v16:1|)))
 (let ((?x5327 (* 17.0 |v15:2|)))
 (let ((?x8153 (* 13.0 |v0:17|)))
 (let ((?x6947 (+ (+ (+ (+ (* 16.0 |v12:5|) (* ?x6156 |v0:17|)) (* 19.0 |v4:13|)) ?x8153) ?x5327)))
 (let (($x130 (and (<= (+ (+ ?x6947 ?x4961) ?x2709) 12.0) (<= (+ (+ (+ ?x4718 (* 18.0 |v13:4|)) ?x5338) ?x6390) 2.0))))
 (let (($x999 (and (and $x130 (or $x5596 (<= (+ (+ (+ ?x3120 ?x7708) ?x9008) ?x8427) ?x7410))) (and $x4241 $x4540))))
 (let ((?x2540 (- 20.0)))
 (let ((?x3669 (rval2 |v10:7_st|)))
 (let ((?x9566 (- 10.0)))
 (let ((?x6026 (* ?x9566 ?x3669)))
 (let ((?x8141 (* ?x6156 ?x3669)))
 (let ((?x3312 (- 13.0)))
 (let ((?x7744 (* ?x3312 |v3:14|)))
 (let ((?x5187 (- 6.0)))
 (let ((?x1374 (* ?x5187 |v5:12|)))
 (let ((?x7760 (+ (+ (+ (+ (* 10.0 |v2:15|) (* 0.0 |v0:17|)) (* 18.0 |v3:14|)) ?x1374) ?x7744)))
 (let ((?x9340 (* 19.0 |v13:4|)))
 (let ((?x6587 (* ?x9566 |v4:13|)))
 (let ((?x2289 (* ?x5187 |v1:16|)))
 (let ((?x8146 (+ (+ (+ (* 3.0 |v16:1|) (* ?x3812 (rval2 |v7:10_st|))) (* 12.0 |v13:4|)) (* (- 7.0) (rval2 |v6:11_st|)))))
 (let ((?x8732 (* ?x7410 |v2:15|)))
 (let ((?x7925 (- 3.0)))
 (let ((?x3052 (* ?x7925 |v3:14|)))
 (let ((?x3373 (+ (+ (* (- 4.0) |v2:15|) (* 6.0 |v4:13|)) ?x3052)))
 (let ((?x3284 (+ (+ (+ (+ ?x3373 (* ?x9566 |v12:5|)) ?x8732) (* ?x3312 |v17:0|)) (* 17.0 |v17:0|))))
 (let ((?x3237 (- 14.0)))
 (let ((?x2140 (* ?x3237 |v1:16|)))
 (let ((?x439 (rval2 |v6:11_st|)))
 (let ((?x286 (- 19.0)))
 (let ((?x7600 (* ?x286 ?x439)))
 (let ((?x6281 (* 0.0 ?x439)))
 (let ((?x2561 (* 10.0 |v0:17|)))
 (let ((?x3763 (+ (+ (+ (* 6.0 ?x5679) (* ?x5187 |v2:15|)) (* 2.0 (rval2 |v7:10_st|))) ?x2561)))
 (let ((?x3520 (* 12.0 |v1:16|)))
 (let ((?x4448 (* 6.0 |v0:17|)))
 (let ((?x9179 (- 9.0)))
 (let ((?x8606 (* ?x9179 ?x5679)))
 (let ((?x4995 (* 14.0 |v17:0|)))
 (let ((?x8464 (+ (+ (+ (+ (* ?x3812 |v17:0|) (* 18.0 ?x4856)) (* ?x9179 ?x3669)) ?x4995) ?x8606)))
 (let (($x1088 (or (<= (+ (+ ?x8464 ?x4448) ?x3520) ?x3312) (<= (+ (+ (+ ?x3763 ?x6281) ?x7600) ?x2140) ?x7410))))
 (let (($x7690 (or $x1088 (or (<= ?x3284 15.0) (<= (+ (+ (+ ?x8146 ?x2289) ?x6587) ?x9340) 6.0)))))
 (let ((?x7569 (* ?x6156 |v2:15|)))
 (let ((?x5411 (* 2.0 |v16:1|)))
 (let ((?x5802 (* 3.0 ?x439)))
 (let ((?x6233 (+ (+ (+ (+ (* ?x6156 |v16:1|) (* ?x7468 |v15:2|)) (* 4.0 ?x9214)) ?x5802) ?x5411)))
 (let ((?x4539 (* ?x5537 |v3:14|)))
 (let ((?x6059 (- 2.0)))
 (let ((?x6512 (* ?x6059 |v5:12|)))
 (let ((?x4750 (* ?x3237 |v3:14|)))
 (let ((?x374 (* 8.0 |v12:5|)))
 (let ((?x5806 (+ (+ (+ (+ (* 18.0 ?x3669) (* 16.0 ?x3669)) (* ?x7468 |v4:13|)) ?x374) ?x4750)))
 (let (($x8615 (or (<= (+ (+ ?x5806 ?x6512) ?x4539) 2.0) (<= (+ (+ ?x6233 ?x7569) (* ?x6059 |v13:4|)) 4.0))))
 (let ((?x2332 (* 9.0 |v1:16|)))
 (let ((?x7689 (* 7.0 |v1:16|)))
 (let ((?x549 (* ?x5187 |v14:3|)))
 (let ((?x6564 (+ (+ (+ (+ (* (- 4.0) ?x439) (* ?x3812 ?x3669)) (* 17.0 ?x4856)) ?x2561) ?x549)))
 (let ((?x9308 (- 7.0)))
 (let ((?x4592 (- 4.0)))
 (let ((?x3867 (* ?x4592 |v12:5|)))
 (let ((?x5298 (* 14.0 |v16:1|)))
 (let ((?x4307 (* 8.0 |v16:1|)))
 (let ((?x5209 (* 8.0 |v0:17|)))
 (let ((?x805 (+ (+ (+ (+ (* 17.0 |v2:15|) (* ?x3775 ?x3669)) (* 5.0 ?x3669)) ?x5209) ?x4307)))
 (let (($x2417 (and (<= (+ (+ ?x805 ?x5298) ?x3867) ?x9308) (<= (+ (+ ?x6564 ?x7689) ?x2332) ?x3312))))
 (let ((?x4742 (* 4.0 ?x9214)))
 (let ((?x8628 (* 20.0 |v2:15|)))
 (let ((?x2719 (* 19.0 |v16:1|)))
 (let ((?x7421 (* 2.0 |v5:12|)))
 (let ((?x8037 (+ (+ (+ (+ (* ?x6156 |v5:12|) (* 12.0 ?x9214)) (* ?x7410 |v4:13|)) ?x7421) ?x2719)))
 (let ((?x7087 (* 20.0 |v4:13|)))
 (let ((?x8680 (* ?x6059 ?x5679)))
 (let ((?x8014 (* 4.0 |v0:17|)))
 (let ((?x9251 (* ?x2540 |v13:4|)))
 (let ((?x7550 (+ (+ (+ (+ (* ?x9179 |v4:13|) (* ?x2540 ?x5679)) (* 3.0 |v13:4|)) ?x9251) ?x8014)))
 (let (($x2535 (and (<= (+ (+ ?x7550 ?x8680) ?x7087) ?x6156) (<= (+ (+ ?x8037 ?x8628) ?x4742) 12.0))))
 (let ((?x8355 (- 12.0)))
 (let ((?x1723 (* ?x8355 |v2:15|)))
 (let ((?x604 (* 15.0 |v4:13|)))
 (let ((?x1173 (+ (+ (+ (+ ?x1661 (* 19.0 ?x5679)) (* 6.0 ?x4856)) (* ?x9566 ?x4856)) ?x604)))
 (let ((?x8330 (* 7.0 |v2:15|)))
 (let ((?x5233 (* 16.0 ?x5679)))
 (let ((?x6752 (+ (+ (+ (+ (* ?x5187 |v4:13|) ?x7708) (* 2.0 ?x9214)) (* 8.0 |v17:0|)) ?x5233)))
 (let (($x8585 (or (<= (+ (+ ?x6752 ?x8330) (* 20.0 |v17:0|)) 13.0) (<= (+ (+ ?x1173 ?x1723) (* ?x6156 |v12:5|)) 7.0))))
 (let ((?x7386 (* 2.0 |v2:15|)))
 (let ((?x3275 (* 0.0 |v17:0|)))
 (let ((?x157 (* 15.0 |v13:4|)))
 (let ((?x5236 (* ?x5537 |v14:3|)))
 (let ((?x4200 (+ (+ (+ (+ (* 14.0 |v2:15|) (* 0.0 |v13:4|)) (* 16.0 |v5:12|)) ?x5236) ?x157)))
 (let ((?x2067 (* ?x5187 ?x9214)))
 (let ((?x4667 (* ?x9566 |v1:16|)))
 (let ((?x4834 (* 8.0 |v1:16|)))
 (let ((?x4632 (+ (+ (+ (+ (* ?x3237 ?x5679) (* 2.0 ?x5679)) (* ?x286 |v2:15|)) ?x4834) ?x4667)))
 (let ((?x2279 (* ?x7410 ?x3669)))
 (let ((?x1302 (* ?x6059 |v14:3|)))
 (let ((?x5111 (+ (+ (+ (+ ?x6026 (* ?x9179 (rval2 |v7:10_st|))) ?x4995) (* 11.0 |v13:4|)) ?x1302)))
 (let (($x6478 (or (<= (+ (+ ?x5111 ?x2279) (* ?x7925 |v12:5|)) ?x1687) (<= (+ (+ ?x4632 ?x2067) (* ?x6156 ?x4856)) 6.0))))
 (let ((?x1250 (* 6.0 |v17:0|)))
 (let ((?x4974 (* 13.0 ?x5679)))
 (let ((?x7630 (* 8.0 |v15:2|)))
 (let ((?x8083 (* 13.0 |v16:1|)))
 (let ((?x2968 (+ (+ (+ (+ (* ?x9566 |v14:3|) (* 16.0 |v17:0|)) (* 11.0 |v16:1|)) ?x8083) ?x7630)))
 (let ((?x3407 (* ?x3812 |v0:17|)))
 (let ((?x1637 (+ (+ (+ (* ?x3237 |v0:17|) (* ?x7925 |v4:13|)) (* 12.0 |v0:17|)) (* ?x2540 |v3:14|))))
 (let (($x4872 (or (<= (+ (+ (+ ?x1637 (* 15.0 |v14:3|)) ?x3407) ?x7600) ?x5187) (<= (+ (+ ?x2968 ?x4974) ?x1250) ?x3237))))
 (let (($x580 (and (and (or $x4872 $x6478) (<= (+ (+ ?x4200 ?x3275) ?x7386) ?x7468)) (and (and $x8585 $x2535) (or $x2417 $x8615)))))
 (let ((?x2928 (* 15.0 |v17:0|)))
 (let ((?x3451 (* ?x3237 |v0:17|)))
 (let ((?x7122 (- 17.0)))
 (let ((?x8387 (* ?x7122 |v5:12|)))
 (let ((?x5454 (+ (+ (+ (+ (* 10.0 |v13:4|) (* 5.0 ?x439)) (* 5.0 |v3:14|)) ?x6314) ?x8387)))
 (let ((?x6045 (* 10.0 |v14:3|)))
 (let ((?x3521 (* ?x3775 |v1:16|)))
 (let ((?x8690 (* ?x3237 ?x439)))
 (let ((?x1180 (* 5.0 ?x5679)))
 (let ((?x67 (+ (+ (+ (* 0.0 |v15:2|) (* 3.0 |v2:15|)) (* ?x8355 (rval2 |v7:10_st|))) ?x1180)))
 (let (($x6955 (or (<= (+ (+ (+ ?x67 ?x8690) ?x3521) ?x6045) ?x6059) (<= (+ (+ ?x5454 ?x3451) ?x2928) ?x1687))))
 (let ((?x3408 (* 2.0 ?x439)))
 (let ((?x2539 (* ?x3312 |v12:5|)))
 (let ((?x8102 (* ?x3775 |v14:3|)))
 (let ((?x9167 (* ?x7122 |v15:2|)))
 (let ((?x1398 (+ (+ (+ (+ (* 19.0 (rval2 |v7:10_st|)) (* 6.0 |v13:4|)) ?x1302) ?x9167) ?x8102)))
 (let ((?x800 (* 2.0 |v0:17|)))
 (let ((?x4376 (* 10.0 |v3:14|)))
 (let ((?x5494 (+ (+ (+ (* ?x5537 (rval2 |v7:10_st|)) (* ?x9308 |v13:4|)) (* ?x1687 |v4:13|)) (* ?x3312 |v13:4|))))
 (let (($x7598 (and (<= (+ (+ (+ ?x5494 ?x4376) ?x800) ?x5411) 11.0) (<= (+ (+ ?x1398 ?x2539) ?x3408) 20.0))))
 (let ((?x4371 (* 3.0 |v12:5|)))
 (let ((?x2596 (* 11.0 ?x439)))
 (let ((?x2701 (rval2 |v7:10_st|)))
 (let ((?x4306 (* ?x9179 ?x2701)))
 (let ((?x5385 (+ (+ (+ (* ?x5537 ?x3669) (* ?x6156 |v15:2|)) (* ?x3812 ?x9214)) (* 20.0 ?x2701))))
 (let ((?x5744 (* ?x6156 |v15:2|)))
 (let ((?x8977 (* ?x3775 |v4:13|)))
 (let ((?x1826 (+ (+ (+ (+ (* ?x6156 ?x5679) ?x5233) (* 2.0 |v15:2|)) (* 6.0 |v13:4|)) ?x8977)))
 (let (($x6688 (and (<= (+ (+ ?x1826 ?x3867) ?x5744) 0.0) (<= (+ (+ (+ ?x5385 ?x4306) ?x2596) ?x4371) ?x8355))))
 (let ((?x3918 (* 12.0 ?x439)))
 (let ((?x8686 (* ?x286 |v12:5|)))
 (let ((?x5562 (* 5.0 |v16:1|)))
 (let ((?x70 (* 14.0 |v4:13|)))
 (let ((?x9205 (+ (+ (+ (+ (* ?x7925 ?x2701) (* ?x3812 ?x5679)) (* 7.0 |v5:12|)) ?x70) ?x5562)))
 (let ((?x56 (* ?x3312 ?x439)))
 (let ((?x5616 (* ?x6156 |v16:1|)))
 (let ((?x4946 (* 0.0 |v0:17|)))
 (let ((?x5026 (+ (+ (+ (+ (* ?x5537 ?x3669) ?x8680) (* 3.0 ?x4856)) (* 0.0 |v15:2|)) ?x4946)))
 (let (($x4224 (or (<= (+ (+ ?x5026 ?x5616) ?x56) ?x9308) (<= (+ (+ ?x9205 ?x8686) ?x3918) 5.0))))
 (let ((?x8276 (* ?x3775 |v0:17|)))
 (let ((?x6832 (+ (+ (+ (+ ?x7386 (* ?x6059 ?x439)) (* ?x1687 |v2:15|)) ?x3275) (* 11.0 |v15:2|))))
 (let ((?x9338 (* 9.0 |v3:14|)))
 (let ((?x9363 (+ (+ (+ (+ (* 20.0 |v14:3|) (* 19.0 ?x2701)) ?x9251) (* ?x3237 |v5:12|)) (* ?x9179 |v13:4|))))
 (let (($x7558 (and (<= (+ (+ ?x9363 ?x9338) ?x2539) 5.0) (<= (+ (+ ?x6832 ?x5327) ?x8276) ?x3812))))
 (let ((?x2306 (* 15.0 |v1:16|)))
 (let ((?x5384 (+ (+ (+ (+ (+ ?x8628 (* ?x8355 |v3:14|)) (* 6.0 ?x4856)) ?x7744) ?x2306) ?x8606)))
 (let ((?x6407 (* 15.0 |v16:1|)))
 (let ((?x2092 (* 9.0 |v16:1|)))
 (let ((?x3985 (+ (+ (+ (+ (* ?x3312 ?x9214) (* 15.0 ?x9214)) (* 19.0 |v3:14|)) ?x2092) ?x6407)))
 (let (($x7692 (and (<= (+ (+ ?x3985 ?x6407) ?x4306) 17.0) (<= (+ ?x5384 (* ?x9179 ?x439)) 10.0))))
 (let ((?x8259 (* 5.0 |v0:17|)))
 (let ((?x569 (+ (+ (+ (+ (+ ?x6902 (* 16.0 |v4:13|)) ?x2561) (* ?x286 |v17:0|)) ?x8259) ?x4961)))
 (let ((?x2830 (* 9.0 |v14:3|)))
 (let ((?x4466 (* ?x7122 |v12:5|)))
 (let ((?x5098 (* 10.0 |v13:4|)))
 (let ((?x6837 (+ (+ (+ (+ (* 14.0 ?x4856) (* 17.0 ?x439)) (* ?x7925 |v2:15|)) ?x5098) ?x4466)))
 (let (($x609 (or (<= (+ (+ ?x6837 (* ?x3775 ?x2701)) ?x2830) 5.0) (<= (+ ?x569 ?x5327) 6.0))))
 (let (($x3752 (and (and (and $x609 $x7692) (and $x7558 $x4224)) (or $x6688 (or $x7598 $x6955)))))
 (let ((?x4813 (* 4.0 |v4:13|)))
 (let ((?x432 (* ?x9179 |v5:12|)))
 (let ((?x5476 (* ?x3812 |v15:2|)))
 (let ((?x3420 (+ (+ (+ (+ (* 13.0 |v2:15|) (* ?x8355 |v17:0|)) (* 11.0 |v12:5|)) ?x5476) ?x549)))
 (let ((?x7679 (* ?x4592 |v5:12|)))
 (let ((?x1595 (* 13.0 |v12:5|)))
 (let ((?x4647 (* ?x3812 |v17:0|)))
 (let ((?x2358 (+ (+ (+ (+ (* ?x6059 |v17:0|) (* ?x2540 |v17:0|)) (* 17.0 |v14:3|)) ?x4647) ?x4376)))
 (let (($x6816 (or (<= (+ (+ ?x2358 ?x1595) ?x7679) 0.0) (<= (+ (+ ?x3420 ?x432) ?x4813) 4.0))))
 (let ((?x380 (* 0.0 ?x3669)))
 (let ((?x4727 (* ?x9566 |v13:4|)))
 (let ((?x2502 (+ (+ (+ (+ (* 4.0 |v15:2|) (* ?x5537 |v0:17|)) ?x3052) (* ?x7925 |v5:12|)) ?x4727)))
 (let ((?x772 (* ?x8355 |v0:17|)))
 (let ((?x413 (+ (+ (+ (+ ?x5236 (* 15.0 |v3:14|)) (* 6.0 ?x4856)) (* ?x9566 |v14:3|)) (* ?x4592 |v17:0|))))
 (let (($x8104 (or (<= (+ (+ ?x413 (* ?x9308 |v17:0|)) ?x772) 16.0) (<= (+ (+ ?x2502 ?x380) ?x2067) 11.0))))
 (let ((?x1242 (* 12.0 |v15:2|)))
 (let ((?x9302 (+ (+ (+ (+ (* ?x1687 ?x9214) (* ?x7925 ?x3669)) (* ?x4592 |v4:13|)) ?x1242) ?x70)))
 (let ((?x7284 (* 6.0 |v15:2|)))
 (let ((?x2658 (* 20.0 |v3:14|)))
 (let ((?x3648 (+ (+ (+ (+ ?x8102 (* ?x286 |v4:13|)) (* ?x4592 |v14:3|)) (* ?x7925 ?x5679)) ?x2658)))
 (let ((?x1776 (* ?x9308 |v14:3|)))
 (let ((?x8817 (* 7.0 |v17:0|)))
 (let ((?x5148 (+ (+ (+ (+ ?x380 (* ?x9179 ?x3669)) (* ?x7122 |v2:15|)) (* ?x9566 ?x9214)) ?x8817)))
 (let (($x4439 (or (<= (+ (+ ?x5148 (* 3.0 ?x5679)) ?x1776) 11.0) (<= (+ (+ ?x3648 ?x8153) ?x7284) ?x5537))))
 (let ((?x3966 (* ?x7122 |v13:4|)))
 (let ((?x7731 (+ (+ (+ (+ (+ (+ ?x4750 (* 12.0 |v12:5|)) ?x1595) ?x432) |v14:3|) ?x2596) ?x3966)))
 (let ((?x2883 (* ?x9308 ?x2701)))
 (let ((?x3553 (* 3.0 ?x9214)))
 (let ((?x4806 (* ?x7410 ?x2701)))
 (let ((?x1878 (+ (+ (+ (+ (* 15.0 |v15:2|) (* ?x6156 |v5:12|)) (* 4.0 |v16:1|)) ?x4806) (* 12.0 ?x4856))))
 (let ((?x2640 (* 14.0 |v2:15|)))
 (let ((?x9464 (* 3.0 |v1:16|)))
 (let ((?x6715 (* ?x286 |v17:0|)))
 (let ((?x1662 (* 18.0 ?x439)))
 (let ((?x5170 (+ (+ (+ (+ (* 10.0 ?x3669) (* ?x6156 |v0:17|)) (* 4.0 |v17:0|)) ?x1662) ?x6715)))
 (let ((?x322 (* 4.0 |v12:5|)))
 (let ((?x890 (* 13.0 |v4:13|)))
 (let ((?x5309 (+ (+ (+ (+ (* ?x7468 |v13:4|) (* 6.0 |v3:14|)) (* ?x2540 |v5:12|)) ?x5298) ?x2144)))
 (let (($x5946 (or (<= (+ (+ ?x5309 ?x890) ?x322) 8.0) (<= (+ (+ ?x5170 ?x9464) ?x2640) 2.0))))
 (let ((?x3718 (* ?x9566 |v14:3|)))
 (let ((?x8560 (* 5.0 |v1:16|)))
 (let ((?x692 (* ?x7410 |v4:13|)))
 (let ((?x8654 (+ (+ (+ (+ (* 17.0 ?x4856) (* 3.0 |v0:17|)) (* ?x3237 |v17:0|)) ?x692) ?x8560)))
 (let ((?x8963 (* ?x9308 |v1:16|)))
 (let ((?x3220 (* 18.0 |v14:3|)))
 (let ((?x8158 (+ (+ (+ (+ ?x6970 (* ?x3812 |v5:12|)) (* ?x1687 |v3:14|)) (* ?x8355 ?x3669)) ?x8387)))
 (let (($x330 (or (<= (+ (+ ?x8158 ?x3220) ?x8963) ?x9566) (<= (+ (+ ?x8654 (* ?x9566 |v17:0|)) ?x3718) ?x3312))))
 (let (($x6032 (and (or $x330 $x5946) (and (or (<= (+ (+ ?x1878 ?x3553) ?x2883) 15.0) (<= ?x7731 17.0)) $x4439))))
 (let (($x1175 (or $x6032 (or (<= (+ (+ ?x9302 ?x439) (* ?x7410 ?x5679)) ?x7410) (and $x8104 $x6816)))))
 (let (($x6467 (and (or $x1175 $x3752) (and $x580 (and (and $x7690 (<= (+ (+ ?x7760 ?x8141) ?x6026) ?x2540)) $x999)))))
 (let ((?x2352 (* 15.0 |v12:5|)))
 (let ((?x7672 (* ?x3312 |v4:13|)))
 (let ((?x9649 (* 17.0 ?x439)))
 (let ((?x4767 (+ (+ (+ (+ (* 17.0 ?x5679) ?x7630) (* ?x3812 |v13:4|)) (* ?x6156 |v5:12|)) ?x9649)))
 (let ((?x3913 (* 2.0 |v15:2|)))
 (let ((?x7574 (* 2.0 ?x4856)))
 (let ((?x6630 (* 10.0 ?x5679)))
 (let ((?x7561 (+ (+ (+ (+ (* ?x6059 ?x4856) (* 0.0 |v4:13|)) (* ?x4592 |v14:3|)) ?x6630) ?x7574)))
 (let ((?x8543 (* ?x9308 |v13:4|)))
 (let ((?x6377 (* 12.0 |v4:13|)))
 (let ((?x1944 (+ (+ (+ (+ (* ?x9308 |v12:5|) ?x5411) (* ?x7122 |v17:0|)) (* 10.0 |v16:1|)) ?x9340)))
 (let (($x3671 (and (<= (+ (+ ?x1944 ?x6377) ?x8543) ?x6156) (<= (+ (+ ?x7561 ?x3913) (* ?x286 ?x5679)) 19.0))))
 (let ((?x1756 (* ?x1687 |v1:16|)))
 (let ((?x6351 (+ (+ (+ (+ ?x6045 (* ?x9566 |v2:15|)) (* 6.0 |v3:14|)) (* 3.0 |v0:17|)) ?x6902)))
 (let ((?x779 (* 4.0 ?x3669)))
 (let ((?x3338 (+ (+ (+ (* ?x6059 ?x2701) (* ?x5537 |v15:2|)) (* ?x3775 |v3:14|)) (* ?x7925 ?x439))))
 (let (($x4737 (or (<= (+ (+ (+ ?x3338 (* 14.0 ?x9214)) ?x779) ?x5327) ?x1687) (<= (+ (+ ?x6351 ?x1756) (* ?x9566 |v15:2|)) ?x3812))))
 (let ((?x2486 (* ?x8355 |v4:13|)))
 (let ((?x8332 (* ?x5537 |v1:16|)))
 (let ((?x4382 (* ?x1687 |v2:15|)))
 (let ((?x1995 (+ (+ (+ (+ (+ ?x4995 (* 8.0 |v14:3|)) ?x5338) (* ?x8355 |v13:4|)) ?x4382) ?x8332)))
 (let ((?x6901 (* 0.0 ?x5679)))
 (let ((?x3693 (+ (+ (+ (+ (+ (* ?x7468 ?x3669) ?x3220) (* 9.0 |v17:0|)) ?x3913) ?x7386) ?x6901)))
 (let (($x1342 (and (and (<= (+ ?x3693 (* ?x1687 ?x5679)) ?x6059) (<= (+ ?x1995 ?x2486) 18.0)) $x4737)))
 (let ((?x8762 (* 4.0 |v1:16|)))
 (let ((?x1544 (* 14.0 ?x439)))
 (let ((?x8034 (+ (+ (+ (+ (+ ?x5679 (* ?x9179 |v3:14|)) (* ?x3237 |v15:2|)) ?x2719) ?x1544) ?x800)))
 (let ((?x688 (* 5.0 |v2:15|)))
 (let ((?x8391 (* 11.0 |v12:5|)))
 (let ((?x1812 (* ?x3812 ?x4856)))
 (let ((?x6582 (* ?x7468 |v4:13|)))
 (let ((?x3478 (+ (+ (+ (+ (* ?x7468 |v3:14|) (* ?x5187 |v4:13|)) (* 18.0 |v12:5|)) ?x6582) ?x1812)))
 (let ((?x6547 (* 7.0 |v5:12|)))
 (let ((?x3919 (* ?x5537 ?x9214)))
 (let ((?x8767 (+ (+ (+ (+ (+ (* 14.0 |v15:2|) |v17:0|) (* 2.0 |v12:5|)) ?x1526) ?x3919) ?x6582)))
 (let ((?x8602 (* 7.0 ?x5679)))
 (let ((?x3079 (* 6.0 |v2:15|)))
 (let ((?x6737 (+ (+ (+ (+ (+ (* 8.0 ?x2701) (* 4.0 ?x2701)) ?x432) ?x3919) ?x5476) ?x3079)))
 (let (($x7234 (and (and (<= (+ ?x6737 ?x8602) ?x5187) (<= (+ ?x8767 ?x6547) 12.0)) (and (<= (+ (+ ?x3478 ?x8391) ?x688) ?x6156) (<= (+ ?x8034 ?x8762) 15.0)))))
 (let ((?x3277 (* ?x7925 ?x2701)))
 (let ((?x7192 (+ (+ (+ (+ (* ?x3312 ?x5679) (* 16.0 |v5:12|)) ?x9251) (* ?x7410 |v14:3|)) (* ?x286 ?x3669))))
 (let ((?x796 (* 11.0 |v13:4|)))
 (let ((?x6861 (+ (+ (+ (+ (* ?x7925 |v13:4|) (* ?x6059 ?x4856)) (* ?x7410 ?x9214)) ?x1776) ?x796)))
 (let (($x7459 (or (<= (+ (+ ?x6861 (* ?x2540 |v16:1|)) ?x3867) 16.0) (<= (+ (+ ?x7192 ?x3553) ?x3277) 16.0))))
 (let ((?x254 (* ?x7925 ?x9214)))
 (let ((?x9450 (+ (+ (+ (+ (+ ?x2067 (* 3.0 |v0:17|)) (* 19.0 ?x439)) ?x8680) ?x3520) ?x6582)))
 (let ((?x4888 (* ?x4592 ?x2701)))
 (let ((?x8390 (* ?x3812 ?x3669)))
 (let ((?x1507 (+ (+ (+ (+ (* ?x4592 ?x3669) (* 17.0 |v2:15|)) ?x2561) (* ?x286 |v0:17|)) ?x8390)))
 (let (($x2290 (and (<= (+ (+ ?x1507 (* ?x6059 |v16:1|)) ?x4888) ?x7468) (<= (+ ?x9450 ?x254) ?x1687))))
 (let (($x2040 (or (or (or $x2290 $x7459) $x7234) (and $x1342 (and $x3671 (<= (+ (+ ?x4767 ?x7672) ?x2352) 10.0))))))
 (let ((?x5033 (+ (+ (+ (+ (+ (* 6.0 ?x5679) ?x3408) ?x56) ?x8732) (* 8.0 ?x9214)) (* 3.0 |v17:0|))))
 (let ((?x9273 (+ (+ (+ (+ (+ (* 4.0 ?x2701) ?x9008) ?x3553) (* 16.0 |v3:14|)) ?x4667) ?x1812)))
 (let ((?x8078 (* 9.0 ?x2701)))
 (let ((?x1783 (+ (+ (+ (+ (* ?x2540 |v4:13|) (* ?x8355 ?x5679)) ?x7421) (* 14.0 ?x3669)) ?x3966)))
 (let ((?x2446 (* 18.0 |v16:1|)))
 (let ((?x1384 (+ (+ (+ (+ (+ ?x9338 (* 3.0 |v15:2|)) ?x1242) ?x1526) (* 9.0 |v17:0|)) ?x6630)))
 (let ((?x7073 (* 19.0 |v12:5|)))
 (let ((?x6871 (* ?x5537 |v5:12|)))
 (let ((?x9253 (+ (+ (+ (+ (* ?x9308 |v0:17|) (* 14.0 |v3:14|)) ?x1250) (* 6.0 |v4:13|)) ?x6871)))
 (let (($x5335 (or (or (<= (+ (+ ?x9253 ?x7073) ?x1302) 10.0) (<= (+ ?x1384 ?x2446) ?x286)) (or (<= (+ (+ ?x1783 ?x8078) ?x4466) ?x2540) (<= (+ ?x9273 ?x129) 1.0)))))
 (let ((?x6423 (* 20.0 |v13:4|)))
 (let ((?x6131 (* 6.0 |v13:4|)))
 (let ((?x6866 (+ (+ (+ (+ ?x2144 (* ?x9179 |v0:17|)) (* ?x9566 |v2:15|)) (* 20.0 |v16:1|)) ?x6131)))
 (let ((?x8065 (* ?x4592 |v4:13|)))
 (let ((?x1338 (* ?x6156 |v17:0|)))
 (let ((?x6231 (+ (+ (+ (+ (* ?x7122 |v17:0|) (* ?x9566 ?x439)) ?x2883) (* ?x8355 ?x439)) ?x1338)))
 (let (($x8318 (or (<= (+ (+ ?x6231 ?x8065) ?x4307) ?x9308) (<= (+ (+ ?x6866 ?x4806) ?x6423) 4.0))))
 (let ((?x3662 (* ?x8355 |v3:14|)))
 (let ((?x3865 (* 14.0 ?x2701)))
 (let ((?x2085 (+ (+ (+ (+ (* ?x6156 |v4:13|) (* 20.0 ?x439)) (* 12.0 |v14:3|)) ?x8543) ?x3865)))
 (let ((?x2412 (* 4.0 |v15:2|)))
 (let ((?x863 (* 0.0 |v1:16|)))
 (let ((?x3391 (* ?x6059 ?x2701)))
 (let ((?x3685 (+ (+ (+ (* ?x6059 |v3:14|) (* ?x5537 |v2:15|)) (* 17.0 |v1:16|)) (* ?x9566 |v3:14|))))
 (let (($x6720 (and (<= (+ (+ (+ ?x3685 ?x3391) ?x863) ?x2412) 13.0) (<= (+ (+ ?x2085 ?x3662) ?x2446) ?x3237))))
 (let ((?x8872 (* ?x3812 |v2:15|)))
 (let ((?x5970 (+ (+ (+ (+ (* ?x7122 ?x9214) (* 3.0 |v0:17|)) (* 15.0 |v3:14|)) ?x8872) ?x4255)))
 (let ((?x8337 (* ?x7122 |v3:14|)))
 (let ((?x3437 (* ?x4592 ?x9214)))
 (let ((?x1319 (+ (+ (+ (+ (* 7.0 |v0:17|) (* 9.0 |v4:13|)) ?x1812) (* ?x9179 ?x3669)) ?x3437)))
 (let (($x9281 (or (<= (+ (+ ?x1319 (* ?x9308 ?x5679)) ?x8337) ?x7410) (<= (+ (+ ?x5970 (* ?x3237 |v12:5|)) (* ?x5187 ?x5679)) 17.0))))
 (let ((?x7988 (* ?x5187 ?x2701)))
 (let ((?x7015 (+ (+ (+ (+ (* 0.0 |v15:2|) (* 11.0 |v0:17|)) (* 17.0 |v16:1|)) ?x8065) ?x8141)))
 (let ((?x3862 (* ?x8355 |v5:12|)))
 (let ((?x2070 (+ (+ (+ (+ (+ (* ?x9308 ?x4856) (* 11.0 |v16:1|)) ?x2539) ?x7386) |v16:1|) |v3:14|)))
 (let (($x178 (and (and (<= (+ ?x2070 ?x3862) 2.0) (<= (+ (+ ?x7015 ?x7988) ?x374) ?x6059)) $x9281)))
 (let (($x8244 (or (and $x178 (and $x6720 $x8318)) (and $x5335 (<= (+ ?x5033 (* 3.0 ?x3669)) ?x3812)))))
 (let ((?x682 (* 0.0 |v15:2|)))
 (let ((?x417 (+ (+ (+ (+ (* ?x7468 |v13:4|) ?x8276) (* ?x7410 |v5:12|)) (* 4.0 |v3:14|)) ?x4727)))
 (let ((?x9325 (+ (+ (+ (+ ?x6901 (* ?x7468 |v12:5|)) ?x7744) (* ?x286 |v16:1|)) (* 13.0 |v17:0|))))
 (let (($x2774 (and (<= (+ (+ ?x9325 ?x8065) ?x1338) ?x3237) (<= (+ (+ ?x417 (* ?x6059 ?x9214)) ?x682) ?x3312))))
 (let ((?x1675 (* 13.0 ?x2701)))
 (let ((?x7878 (+ (+ (+ (+ (+ ?x1526 (* ?x9308 |v12:5|)) (* ?x3812 ?x439)) |v5:12|) ?x4834) ?x1675)))
 (let ((?x3357 (+ (+ (+ (+ (+ ?x8602 (* 12.0 |v2:15|)) ?x2561) ?x2140) (* ?x7410 |v3:14|)) (* ?x9179 |v17:0|))))
 (let ((?x3193 (* ?x9308 |v12:5|)))
 (let ((?x5183 (+ (+ (+ (+ (+ ?x1374 (* 11.0 |v16:1|)) ?x1250) (* ?x5537 ?x5679)) ?x6901) ?x3193)))
 (let ((?x3579 (* ?x7925 |v4:13|)))
 (let ((?x1761 (+ (+ (+ (+ (* ?x9308 |v5:12|) ?x2658) ?x3052) ?x8963) ?x3579)))
 (let (($x4875 (or (<= (+ (+ ?x1761 (* 15.0 ?x5679)) (* ?x286 ?x4856)) 2.0) (<= (+ ?x5183 (* ?x4592 ?x4856)) 6.0))))
 (let ((?x5018 (* 19.0 |v1:16|)))
 (let ((?x2934 (* ?x286 |v1:16|)))
 (let ((?x5593 (* ?x7410 |v5:12|)))
 (let ((?x1721 (+ (+ (+ (+ (* ?x6059 |v15:2|) (* ?x8355 ?x3669)) ?x8330) (* 4.0 ?x2701)) ?x5593)))
 (let ((?x9144 (* 6.0 ?x4856)))
 (let ((?x3285 (+ (+ (+ (+ (* ?x3812 |v13:4|) (* ?x4592 |v1:16|)) (* 15.0 ?x2701)) ?x2709) ?x9144)))
 (let (($x1192 (and (<= (+ (+ ?x3285 ?x6281) ?x4961) 12.0) (<= (+ (+ ?x1721 ?x2934) ?x5018) ?x9566))))
 (let (($x9031 (or (and $x1192 $x4875) (and (and (<= (+ ?x3357 ?x7679) ?x9179) (<= (+ ?x7878 ?x7988) ?x7122)) $x2774))))
 (let ((?x6759 (* ?x7468 |v12:5|)))
 (let ((?x4097 (* ?x5537 ?x5679)))
 (let ((?x316 (+ (+ (+ (+ (* 10.0 |v16:1|) (* 13.0 ?x9214)) (* 18.0 |v2:15|)) ?x7708) ?x4097)))
 (let ((?x4713 (* ?x7122 ?x3669)))
 (let ((?x2702 (* ?x4592 ?x3669)))
 (let ((?x4575 (+ (+ (+ (+ (+ ?x6871 ?x9167) (* 8.0 |v3:14|)) (* ?x4592 |v2:15|)) ?x5593) ?x2702)))
 (let ((?x2755 (* 8.0 |v17:0|)))
 (let ((?x7753 (* 16.0 ?x439)))
 (let ((?x996 (* ?x3775 |v3:14|)))
 (let ((?x3719 (+ (+ (+ (+ (+ ?x6281 (* 8.0 |v13:4|)) ?x7073) (* 5.0 ?x9214)) ?x996) ?x7753)))
 (let ((?x5810 (* ?x3812 ?x5679)))
 (let ((?x2469 (+ (+ (+ (+ (+ ?x8141 (* ?x9179 |v0:17|)) (* 0.0 ?x4856)) ?x4097) ?x2596) ?x7672)))
 (let (($x9861 (and (and (<= (+ ?x2469 ?x5810) 3.0) (<= (+ ?x3719 ?x2755) ?x7122)) (and (<= (+ ?x4575 ?x4713) 19.0) (<= (+ (+ ?x316 ?x6759) ?x5236) ?x4592)))))
 (let ((?x625 (* ?x4592 |v3:14|)))
 (let ((?x3362 (+ (+ (+ (+ (* 7.0 |v16:1|) ?x8602) (* ?x7468 ?x439)) (* ?x9179 ?x4856)) ?x625)))
 (let ((?x292 (* 20.0 |v14:3|)))
 (let ((?x2441 (+ (+ (+ (+ (+ (* ?x5537 |v17:0|) (* ?x1687 |v4:13|)) ?x8690) ?x2934) ?x1675) ?x292)))
 (let ((?x7179 (* 16.0 |v4:13|)))
 (let ((?x2504 (* 3.0 |v5:12|)))
 (let ((?x3927 (+ (+ (+ (+ (* 5.0 ?x439) (* 8.0 ?x2701)) (* 12.0 ?x3669)) ?x2504) ?x6045)))
 (let ((?x7189 (* ?x2540 |v0:17|)))
 (let ((?x4168 (* 7.0 |v12:5|)))
 (let ((?x6747 (* 8.0 |v13:4|)))
 (let ((?x5823 (+ (+ (+ (+ (* 3.0 |v14:3|) (* 12.0 |v0:17|)) (* 17.0 ?x2701)) ?x6747) ?x4713)))
 (let (($x3853 (and (<= (+ (+ ?x5823 ?x4168) ?x7189) ?x7122) (<= (+ (+ ?x3927 ?x3079) ?x7179) 4.0))))
 (let (($x2299 (and $x3853 (or (<= (+ ?x2441 ?x4742) 6.0) (<= (+ (+ ?x3362 ?x7450) ?x5593) ?x7122)))))
 (let ((?x1522 (+ (+ (+ (+ (* ?x9566 ?x9214) ?x8817) (* ?x3237 ?x4856)) ?x3867) (* ?x7468 ?x9214))))
 (let ((?x8003 (* 15.0 ?x2701)))
 (let ((?x7245 (+ (+ (+ (+ ?x4813 (* 10.0 |v15:2|)) (* ?x9566 ?x5679)) ?x254) (* ?x8355 ?x4856))))
 (let ((?x1712 (* ?x7122 |v2:15|)))
 (let ((?x7409 (+ (+ (+ (+ (* 18.0 ?x3669) ?x1180) (* 3.0 |v4:13|)) (* ?x3775 |v15:2|)) (* ?x286 ?x9214))))
 (let (($x6048 (or (<= (+ (+ ?x7409 ?x1712) (* ?x5187 ?x3669)) ?x7468) (<= (+ (+ ?x7245 ?x8872) ?x8003) 0.0))))
 (let ((?x6877 (* 5.0 ?x2701)))
 (let ((?x2478 (* ?x5187 |v2:15|)))
 (let ((?x5065 (* ?x6059 |v4:13|)))
 (let ((?x5129 (* 15.0 ?x4856)))
 (let ((?x7849 (+ (+ (+ (+ (* ?x6059 |v3:14|) (* 7.0 ?x439)) (* ?x9566 ?x4856)) ?x5129) ?x5065)))
 (let ((?x2359 (* 14.0 ?x4856)))
 (let ((?x1187 (* ?x3237 |v5:12|)))
 (let ((?x845 (+ (+ (+ (+ (+ (* ?x9179 |v16:1|) |v1:16|) ?x5476) (* ?x7468 |v2:15|)) ?x1187) ?x2359)))
 (let (($x1215 (or (<= (+ ?x845 (* 20.0 ?x4856)) ?x5537) (<= (+ (+ ?x7849 ?x2478) ?x6877) 6.0))))
 (let ((?x4179 (* 16.0 |v2:15|)))
 (let ((?x1001 (+ (+ (+ (+ (* 4.0 ?x439) (* 12.0 |v3:14|)) (* 5.0 ?x3669)) ?x8686) ?x4466)))
 (let ((?x388 (+ (+ (+ (+ (+ (* 8.0 ?x2701) ?x4974) ?x8083) (* 2.0 ?x3669)) ?x6582) ?x9464)))
 (let ((?x5244 (* 11.0 |v4:13|)))
 (let ((?x6096 (* 9.0 |v2:15|)))
 (let ((?x1198 (+ (+ (+ (+ (* ?x8355 ?x2701) (* ?x3312 |v0:17|)) (* ?x3312 |v15:2|)) ?x6096) (* 10.0 |v12:5|))))
 (let ((?x3218 (+ (+ (+ (+ (* 17.0 |v5:12|) (* ?x2540 ?x5679)) ?x5209) (* ?x9179 |v14:3|)) (* ?x7122 ?x5679))))
 (let (($x1859 (and (<= (+ (+ ?x3218 ?x2140) ?x800) 16.0) (<= (+ (+ ?x1198 ?x6587) ?x5244) 19.0))))
 (let (($x409 (or $x1859 (or (<= (+ ?x388 ?x2279) 16.0) (<= (+ (+ ?x1001 ?x4179) ?x6281) 11.0)))))
 (let (($x5953 (and (or $x409 (or $x1215 $x6048)) (<= (+ (+ ?x1522 ?x2144) (* ?x1687 |v14:3|)) 18.0))))
 (let (($x4184 (not (= |v6:11_st| (RMk1 val!10343)))))
 (let (($x3947 (not (= |v7:10_st| (RMk1 val!10342)))))
 (let (($x3746 (not (= |v8:9_st| (RMk1 val!10341)))))
 (let (($x3505 (not (= |v9:8_st| (RMk1 val!10340)))))
 (let (($x1202 (not (= |v10:7_st| (RMk1 val!10339)))))
 (let (($x2351 (not (= |v11:6_st| (RMk1 val!10338)))))
 (and $x2351 $x1202 $x3505 $x3746 $x3947 $x4184 (or (and (and $x5953 (and (or $x2299 $x9861) $x9031)) (or $x8244 $x2040)) $x6467))))))))))))))))))))))))))))))))))))))))))))))))))))))))))))))))))))))))))))))))))))))))))))))))))))))))))))))))))))))))))))))))))))))))))))))))))))))))))))))))))))))))))))))))))))))))))))))))))))))))))))))))))))))))))))))))))))))))))))))))))))))))))))))))))))))))))))))))))))))))))))))))))))))))))))))))))))))))))))))))))))))))))))))))))))))))))))))))))))))))))))))))))))))))))))))))))))))))))))))))))))))))))))))))))))))
 )
 )
 )
 )
 )
 )
 )
 )
 )
 )
 )
 )
 )
 )
 )
 )
 )
 )
(check-sat)
